p cnf 54 187
3 1 0
3 -2 0
-1 2 -3 0
-6 -5 0
-6 2 0
5 -2 6 0
7 -4 0
7 6 0
4 -6 -7 0
-7 8 -9 0
7 -8 -9 0
-7 -8 9 0
7 8 9 0
9 -10 0
-9 -10 0
-13 11 0
-13 -12 0
-11 12 13 0
-14 -10 0
-14 13 0
10 -13 14 0
-15 4 0
-15 8 0
-4 -8 15 0
-16 -15 0
-16 -13 0
15 13 16 0
12 1 -17 0
-12 -1 -17 0
12 -1 17 0
-12 1 17 0
9 -17 -18 0
-9 17 -18 0
9 17 18 0
-9 -17 18 0
-19 -8 0
-19 -18 0
8 18 19 0
-16 19 -20 0
16 -19 -20 0
-16 -19 20 0
16 19 20 0
-21 5 0
-21 -7 0
-5 7 21 0
22 21 0
22 2 0
-21 -2 -22 0
23 -20 0
23 22 0
20 -22 -23 0
24 23 0
24 10 0
-23 -10 -24 0
-14 -24 -25 0
14 24 -25 0
-14 24 25 0
14 -24 25 0
-27 4 0
-27 26 0
-4 -26 27 0
28 25 0
28 27 0
-25 -27 -28 0
29 22 0
29 5 0
-22 -5 -29 0
30 18 0
30 29 0
-18 -29 -30 0
-31 -19 0
-31 18 0
19 -18 31 0
32 26 0
32 31 0
-26 -31 -32 0
33 -5 0
33 -1 0
5 1 -33 0
-34 1 0
-34 5 0
-1 -5 34 0
-35 33 0
-35 34 0
-33 -34 35 0
32 -35 -36 0
-32 35 -36 0
32 35 36 0
-32 -35 36 0
-30 -36 -37 0
30 36 -37 0
-30 36 37 0
30 -36 37 0
28 37 -38 0
-28 -37 -38 0
28 -37 38 0
-28 37 38 0
-3 -38 -39 0
3 38 -39 0
-3 38 39 0
3 -38 39 0
-40 -29 0
-40 -6 0
29 6 40 0
42 41 0
42 -20 0
-41 20 -42 0
44 43 0
44 11 0
-43 -11 -44 0
-45 -44 0
-45 9 0
44 -9 45 0
23 -45 -46 0
-23 45 -46 0
23 45 46 0
-23 -45 46 0
47 46 0
47 2 0
-46 -2 -47 0
48 42 0
48 47 0
-42 -47 -48 0
-49 40 0
-49 48 0
-40 -48 49 0
-50 39 0
-50 -49 0
-39 49 50 0
-51 11 0
-51 -10 0
-11 10 51 0
-52 -4 0
-52 -31 0
4 31 52 0
51 -52 -53 0
-51 52 -53 0
51 52 53 0
-51 -52 53 0
50 53 -54 0
-50 -53 -54 0
50 -53 54 0
-50 53 54 0
-2 -37 13 -7 0
49 16 0
9 -42 54 0
25 37 34 -32 0
35 9 15 -29 0
33 47 0
7 -13 -10 0
37 -26 -52 0
6 15 0
-48 -44 -10 37 7 0
20 1 -21 37 48 0
2 34 47 0
-27 -14 16 0
5 30 2 0
14 10 -8 7 0
-9 16 15 -44 11 0
27 -40 0
27 -20 0
-15 -2 -53 4 -24 0
-50 -37 0
-52 22 -48 23 0
45 54 -48 -21 0
1 34 5 0
40 -50 33 0
9 -30 -48 45 16 22 0
-33 26 -15 -14 6 2 0
-34 -15 -30 -51 0
-17 3 34 -8 23 0
50 -23 -48 0
-45 -44 -2 32 0
-1 -14 -54 34 8 40 0
-51 12 50 47 52 -38 0
30 33 15 0
-29 -32 -53 0
-26 50 -13 0
19 27 -23 -13 0
40 -10 47 0
-23 -38 -46 -11 -20 0
-48 1 0
-49 -4 -50 -25 35 0
-48 15 -7 -26 -21 -22 0
-23 20 -49 25 -28 0
-23 -50 14 51 0
54 0
